(set-info :smt-lib-version 2.6)
(set-logic QF_NIA)
(set-info :source |
Generated by: Cristina Borralleras, Daniel Larraz, Albert Oliveras, Enric Rodriguez-Carbonell, Albert Rubio
Generated on: 2017-04-27
Generator: VeryMax
Application: Termination proving
Target solver: barcelogic
|)
(set-info :license "https://creativecommons.org/licenses/by/4.0/")
(set-info :category "industrial")
(set-info :status unsat)
(declare-fun Nl7arg11 () Int)
(declare-fun Nl7arg21 () Int)
(declare-fun Nl7arg31 () Int)
(declare-fun Nl7arg41 () Int)
(declare-fun Nl7arg51 () Int)
(declare-fun Nl7arg61 () Int)
(declare-fun Nl7arg71 () Int)
(declare-fun Nl7arg81 () Int)
(declare-fun Nl7arg91 () Int)
(declare-fun Nl7arg101 () Int)
(declare-fun Nl7arg111 () Int)
(declare-fun Nl7arg121 () Int)
(declare-fun Nl7arg131 () Int)
(declare-fun Nl8arg11 () Int)
(declare-fun Nl8arg21 () Int)
(declare-fun Nl8arg31 () Int)
(declare-fun Nl8arg41 () Int)
(declare-fun Nl8arg51 () Int)
(declare-fun Nl8arg61 () Int)
(declare-fun Nl8arg71 () Int)
(declare-fun Nl8arg81 () Int)
(declare-fun Nl8arg91 () Int)
(declare-fun Nl8arg101 () Int)
(declare-fun Nl8arg111 () Int)
(declare-fun Nl8arg121 () Int)
(declare-fun Nl8arg131 () Int)
(declare-fun lam0n0 () Int)
(declare-fun lam0n1 () Int)
(declare-fun lam0n2 () Int)
(declare-fun lam0n3 () Int)
(declare-fun lam0n4 () Int)
(declare-fun lam0n5 () Int)
(declare-fun lam0n6 () Int)
(declare-fun lam0n7 () Int)
(declare-fun lam0n8 () Int)
(declare-fun lam0n9 () Int)
(declare-fun lam0n10 () Int)
(declare-fun lam0n11 () Int)
(declare-fun lam0n12 () Int)
(declare-fun lam0n13 () Int)
(declare-fun lam0n14 () Int)
(declare-fun lam0n15 () Int)
(declare-fun lam0n16 () Int)
(declare-fun lam0n17 () Int)
(declare-fun lam0n18 () Int)
(declare-fun lam0n19 () Int)
(declare-fun Nl7CT1 () Int)
(declare-fun lam1n0 () Int)
(declare-fun lam1n1 () Int)
(declare-fun lam1n2 () Int)
(declare-fun lam1n3 () Int)
(declare-fun lam1n4 () Int)
(declare-fun lam1n5 () Int)
(declare-fun lam1n6 () Int)
(declare-fun lam1n7 () Int)
(declare-fun lam1n8 () Int)
(declare-fun lam1n9 () Int)
(declare-fun lam1n10 () Int)
(declare-fun lam1n11 () Int)
(declare-fun lam1n12 () Int)
(declare-fun lam1n13 () Int)
(declare-fun lam1n14 () Int)
(declare-fun lam1n15 () Int)
(declare-fun lam1n16 () Int)
(declare-fun lam1n17 () Int)
(declare-fun lam1n18 () Int)
(declare-fun lam1n19 () Int)
(declare-fun Nl8CT1 () Int)
(declare-fun lam2n0 () Int)
(declare-fun lam2n1 () Int)
(declare-fun lam2n2 () Int)
(declare-fun lam2n3 () Int)
(declare-fun lam2n4 () Int)
(declare-fun lam2n5 () Int)
(declare-fun lam2n6 () Int)
(declare-fun lam2n7 () Int)
(declare-fun lam2n8 () Int)
(declare-fun lam2n9 () Int)
(declare-fun lam2n10 () Int)
(declare-fun lam2n11 () Int)
(declare-fun lam2n12 () Int)
(declare-fun lam2n13 () Int)
(declare-fun lam2n14 () Int)
(declare-fun lam2n15 () Int)
(declare-fun lam2n16 () Int)
(declare-fun lam2n17 () Int)
(declare-fun lam3n0 () Int)
(declare-fun lam3n1 () Int)
(declare-fun lam3n2 () Int)
(declare-fun lam3n3 () Int)
(declare-fun lam3n4 () Int)
(declare-fun lam3n5 () Int)
(declare-fun lam3n6 () Int)
(declare-fun lam3n7 () Int)
(declare-fun lam3n8 () Int)
(declare-fun lam3n9 () Int)
(declare-fun lam3n10 () Int)
(declare-fun lam3n11 () Int)
(declare-fun lam3n12 () Int)
(declare-fun lam3n13 () Int)
(declare-fun lam3n14 () Int)
(declare-fun lam3n15 () Int)
(declare-fun lam3n16 () Int)
(declare-fun lam3n17 () Int)
(declare-fun lam4n0 () Int)
(declare-fun lam4n1 () Int)
(declare-fun lam4n2 () Int)
(declare-fun lam4n3 () Int)
(declare-fun lam4n4 () Int)
(declare-fun lam4n5 () Int)
(declare-fun lam4n6 () Int)
(declare-fun lam4n7 () Int)
(declare-fun lam4n8 () Int)
(declare-fun lam4n9 () Int)
(declare-fun lam4n10 () Int)
(declare-fun lam4n11 () Int)
(declare-fun lam4n12 () Int)
(declare-fun lam4n13 () Int)
(declare-fun lam4n14 () Int)
(declare-fun lam4n15 () Int)
(declare-fun lam4n16 () Int)
(declare-fun lam4n17 () Int)
(declare-fun lam4n18 () Int)
(declare-fun lam4n19 () Int)
(declare-fun lam4n20 () Int)
(declare-fun lam4n21 () Int)
(declare-fun lam4n22 () Int)
(declare-fun lam4n23 () Int)
(declare-fun lam4n24 () Int)
(declare-fun lam4n25 () Int)
(declare-fun lam4n26 () Int)
(declare-fun lam4n27 () Int)
(declare-fun lam4n28 () Int)
(declare-fun lam4n29 () Int)
(declare-fun lam4n30 () Int)
(declare-fun lam4n31 () Int)
(declare-fun lam4n32 () Int)
(declare-fun lam4n33 () Int)
(declare-fun lam4n34 () Int)
(declare-fun lam4n35 () Int)
(declare-fun lam5n0 () Int)
(declare-fun lam5n1 () Int)
(declare-fun lam5n2 () Int)
(declare-fun lam5n3 () Int)
(declare-fun lam5n4 () Int)
(declare-fun lam5n5 () Int)
(declare-fun lam5n6 () Int)
(declare-fun lam5n7 () Int)
(declare-fun lam5n8 () Int)
(declare-fun lam5n9 () Int)
(declare-fun lam5n10 () Int)
(declare-fun lam5n11 () Int)
(declare-fun lam5n12 () Int)
(declare-fun lam5n13 () Int)
(declare-fun lam5n14 () Int)
(declare-fun lam5n15 () Int)
(declare-fun lam5n16 () Int)
(declare-fun lam5n17 () Int)
(declare-fun lam5n18 () Int)
(declare-fun lam5n19 () Int)
(declare-fun lam5n20 () Int)
(declare-fun lam5n21 () Int)
(declare-fun lam5n22 () Int)
(declare-fun lam5n23 () Int)
(declare-fun lam5n24 () Int)
(declare-fun lam5n25 () Int)
(declare-fun lam5n26 () Int)
(declare-fun lam5n27 () Int)
(declare-fun lam5n28 () Int)
(declare-fun lam5n29 () Int)
(declare-fun lam5n30 () Int)
(declare-fun lam5n31 () Int)
(declare-fun lam5n32 () Int)
(declare-fun lam5n33 () Int)
(declare-fun lam5n34 () Int)
(declare-fun lam5n35 () Int)
(declare-fun lam6n0 () Int)
(declare-fun lam6n1 () Int)
(declare-fun lam6n2 () Int)
(declare-fun lam6n3 () Int)
(declare-fun lam6n4 () Int)
(declare-fun lam6n5 () Int)
(declare-fun lam6n6 () Int)
(declare-fun lam6n7 () Int)
(declare-fun lam6n8 () Int)
(declare-fun lam6n9 () Int)
(declare-fun lam6n10 () Int)
(declare-fun lam6n11 () Int)
(declare-fun lam6n12 () Int)
(declare-fun lam6n13 () Int)
(declare-fun lam6n14 () Int)
(declare-fun lam6n15 () Int)
(declare-fun lam6n16 () Int)
(declare-fun lam6n17 () Int)
(declare-fun lam6n18 () Int)
(declare-fun lam6n19 () Int)
(declare-fun lam6n20 () Int)
(declare-fun lam6n21 () Int)
(declare-fun lam6n22 () Int)
(declare-fun lam6n23 () Int)
(declare-fun lam6n24 () Int)
(declare-fun lam6n25 () Int)
(declare-fun lam7n0 () Int)
(declare-fun lam7n1 () Int)
(declare-fun lam7n2 () Int)
(declare-fun lam7n3 () Int)
(declare-fun lam7n4 () Int)
(declare-fun lam7n5 () Int)
(declare-fun lam7n6 () Int)
(declare-fun lam7n7 () Int)
(declare-fun lam7n8 () Int)
(declare-fun lam7n9 () Int)
(declare-fun lam7n10 () Int)
(declare-fun lam7n11 () Int)
(declare-fun lam7n12 () Int)
(declare-fun lam7n13 () Int)
(declare-fun lam7n14 () Int)
(declare-fun lam7n15 () Int)
(declare-fun lam7n16 () Int)
(declare-fun lam7n17 () Int)
(declare-fun lam7n18 () Int)
(declare-fun lam7n19 () Int)
(declare-fun lam7n20 () Int)
(declare-fun lam7n21 () Int)
(declare-fun lam7n22 () Int)
(declare-fun lam7n23 () Int)
(declare-fun lam7n24 () Int)
(declare-fun lam7n25 () Int)
(declare-fun lam8n0 () Int)
(declare-fun lam8n1 () Int)
(declare-fun lam8n2 () Int)
(declare-fun lam8n3 () Int)
(declare-fun lam8n4 () Int)
(declare-fun lam8n5 () Int)
(declare-fun lam8n6 () Int)
(declare-fun lam8n7 () Int)
(declare-fun lam8n8 () Int)
(declare-fun lam8n9 () Int)
(declare-fun lam8n10 () Int)
(declare-fun lam8n11 () Int)
(declare-fun lam8n12 () Int)
(declare-fun lam8n13 () Int)
(declare-fun lam8n14 () Int)
(declare-fun lam8n15 () Int)
(declare-fun lam9n0 () Int)
(declare-fun lam9n1 () Int)
(declare-fun lam9n2 () Int)
(declare-fun lam9n3 () Int)
(declare-fun lam9n4 () Int)
(declare-fun lam9n5 () Int)
(declare-fun lam9n6 () Int)
(declare-fun lam9n7 () Int)
(declare-fun lam9n8 () Int)
(declare-fun lam9n9 () Int)
(declare-fun lam9n10 () Int)
(declare-fun lam9n11 () Int)
(declare-fun lam9n12 () Int)
(declare-fun lam9n13 () Int)
(declare-fun lam9n14 () Int)
(assert ( and ( <= ( - 1 ) Nl7arg11 ) ( <= Nl7arg11 1 ) ( <= ( - 1 ) Nl7arg21 ) ( <= Nl7arg21 1 ) ( <= ( - 1 ) Nl7arg31 ) ( <= Nl7arg31 1 ) ( <= ( - 1 ) Nl7arg41 ) ( <= Nl7arg41 1 ) ( <= ( - 1 ) Nl7arg51 ) ( <= Nl7arg51 1 ) ( <= ( - 1 ) Nl7arg61 ) ( <= Nl7arg61 1 ) ( <= ( - 1 ) Nl7arg71 ) ( <= Nl7arg71 1 ) ( <= ( - 1 ) Nl7arg81 ) ( <= Nl7arg81 1 ) ( <= ( - 1 ) Nl7arg91 ) ( <= Nl7arg91 1 ) ( <= ( - 1 ) Nl7arg101 ) ( <= Nl7arg101 1 ) ( <= ( - 1 ) Nl7arg111 ) ( <= Nl7arg111 1 ) ( <= ( - 1 ) Nl7arg121 ) ( <= Nl7arg121 1 ) ( <= ( - 1 ) Nl7arg131 ) ( <= Nl7arg131 1 ) ( <= ( - 1 ) Nl8arg11 ) ( <= Nl8arg11 1 ) ( <= ( - 1 ) Nl8arg21 ) ( <= Nl8arg21 1 ) ( <= ( - 1 ) Nl8arg31 ) ( <= Nl8arg31 1 ) ( <= ( - 1 ) Nl8arg41 ) ( <= Nl8arg41 1 ) ( <= ( - 1 ) Nl8arg51 ) ( <= Nl8arg51 1 ) ( <= ( - 1 ) Nl8arg61 ) ( <= Nl8arg61 1 ) ( <= ( - 1 ) Nl8arg71 ) ( <= Nl8arg71 1 ) ( <= ( - 1 ) Nl8arg81 ) ( <= Nl8arg81 1 ) ( <= ( - 1 ) Nl8arg91 ) ( <= Nl8arg91 1 ) ( <= ( - 1 ) Nl8arg101 ) ( <= Nl8arg101 1 ) ( <= ( - 1 ) Nl8arg111 ) ( <= Nl8arg111 1 ) ( <= ( - 1 ) Nl8arg121 ) ( <= Nl8arg121 1 ) ( <= ( - 1 ) Nl8arg131 ) ( <= Nl8arg131 1 ) ))
(assert ( or ( and ( >= lam0n0 0 ) ( >= lam0n1 0 ) ( >= lam0n2 0 ) ( >= lam0n3 0 ) ( >= lam0n4 0 ) ( >= lam0n5 0 ) ( >= lam0n6 0 ) ( >= lam0n7 0 ) ( >= lam0n8 0 ) ( >= lam0n9 0 ) ( >= lam0n10 0 ) ( >= lam0n11 0 ) ( >= lam0n12 0 ) ( >= lam0n13 0 ) ( >= lam0n14 0 ) ( >= lam0n15 0 ) ( >= lam0n16 0 ) ( >= lam0n17 0 ) ( >= lam0n18 0 ) ( >= lam0n19 0 ) ( > ( + ( * 1 lam0n0 ) ( * 1 lam0n1 ) ( * 1 lam0n2 ) ( * 1 lam0n3 ) ( * 1 lam0n4 ) ( * 1 lam0n5 ) ( * 1 lam0n6 ) ( * 3 lam0n13 ) ( * 3 lam0n14 ) ( * 3 lam0n15 ) ( * 3 lam0n16 ) ( * 4 lam0n17 ) ( * 4 lam0n18 ) ( * Nl7CT1 lam0n19 ) ( - 1 ) ) 0 ) ( = ( + ( * ( - 1 ) lam0n7 ) ( * ( - 1 ) lam0n13 ) ( * ( - 1 ) lam0n14 ) ( * ( - 1 ) lam0n15 ) ( * ( - 1 ) lam0n16 ) ( * ( - 1 ) lam0n17 ) ( * Nl7arg11 lam0n19 ) ) 0 ) ( = ( + ( * ( - 1 ) lam0n0 ) ( * ( - 1 ) lam0n8 ) ( * ( - 1 ) lam0n9 ) ( * Nl7arg21 lam0n19 ) ) 0 ) ( = ( + ( * ( - 1 ) lam0n1 ) ( * ( - 1 ) lam0n10 ) ( * ( - 1 ) lam0n11 ) ( * Nl7arg31 lam0n19 ) ) 0 ) ( = ( + ( * 1 lam0n2 ) ( * Nl7arg41 lam0n19 ) ) 0 ) ( = ( + ( * 1 lam0n13 ) ( * Nl7arg51 lam0n19 ) ) 0 ) ( = ( + ( * 1 lam0n14 ) ( * Nl7arg61 lam0n19 ) ) 0 ) ( = ( + ( * ( - 1 ) lam0n3 ) ( * Nl7arg71 lam0n19 ) ) 0 ) ( = ( + ( * ( - 1 ) lam0n2 ) ( * Nl7arg81 lam0n19 ) ) 0 ) ( = ( * Nl7arg91 lam0n19 ) 0 ) ( = ( * Nl7arg101 lam0n19 ) 0 ) ( = ( * Nl7arg111 lam0n19 ) 0 ) ( = ( * Nl7arg121 lam0n19 ) 0 ) ( = ( * Nl7arg131 lam0n19 ) 0 ) ( = ( + ( * 1 lam0n7 ) ( * ( - 1 ) lam0n18 ) ) 0 ) ( = ( + ( * ( - 1 ) lam0n4 ) ( * 1 lam0n8 ) ( * 1 lam0n10 ) ( * 1 lam0n15 ) ) 0 ) ( = ( * ( - 1 ) lam0n12 ) 0 ) ( = ( * ( - 1 ) lam0n5 ) 0 ) ( = ( + ( * ( - 1 ) lam0n6 ) ( * 1 lam0n9 ) ( * 1 lam0n11 ) ( * 1 lam0n16 ) ) 0 ) ) ( and ( >= lam1n0 0 ) ( >= lam1n1 0 ) ( >= lam1n2 0 ) ( >= lam1n3 0 ) ( >= lam1n4 0 ) ( >= lam1n5 0 ) ( >= lam1n6 0 ) ( >= lam1n7 0 ) ( >= lam1n8 0 ) ( >= lam1n9 0 ) ( >= lam1n10 0 ) ( >= lam1n11 0 ) ( >= lam1n12 0 ) ( >= lam1n13 0 ) ( >= lam1n14 0 ) ( >= lam1n15 0 ) ( >= lam1n16 0 ) ( >= lam1n17 0 ) ( >= lam1n18 0 ) ( >= lam1n19 0 ) ( > ( + ( * 1 lam1n0 ) ( * 1 lam1n1 ) ( * 1 lam1n2 ) ( * 1 lam1n3 ) ( * 1 lam1n4 ) ( * 1 lam1n5 ) ( * 1 lam1n6 ) ( * 3 lam1n13 ) ( * 3 lam1n14 ) ( * 3 lam1n15 ) ( * 3 lam1n16 ) ( * 4 lam1n17 ) ( * 4 lam1n18 ) ( * Nl7CT1 lam1n19 ) ( - 1 ( + ( + ( + ( + ( + ( + ( + ( + ( + ( + ( + ( + ( + Nl8CT1 ( * Nl8arg11 0 ) ) ( * Nl8arg21 0 ) ) ( * Nl8arg31 0 ) ) ( * Nl8arg41 0 ) ) ( * Nl8arg51 0 ) ) ( * Nl8arg61 0 ) ) ( * Nl8arg71 0 ) ) ( * Nl8arg81 0 ) ) ( * Nl8arg91 0 ) ) ( * Nl8arg101 0 ) ) ( * Nl8arg111 0 ) ) ( * Nl8arg121 0 ) ) ( * Nl8arg131 0 ) ) ) ) 0 ) ( = ( + ( * ( - 1 ) lam1n7 ) ( * ( - 1 ) lam1n13 ) ( * ( - 1 ) lam1n14 ) ( * ( - 1 ) lam1n15 ) ( * ( - 1 ) lam1n16 ) ( * ( - 1 ) lam1n17 ) ( * Nl7arg11 lam1n19 ) ) 0 ) ( = ( + ( * ( - 1 ) lam1n0 ) ( * ( - 1 ) lam1n8 ) ( * ( - 1 ) lam1n9 ) ( * Nl7arg21 lam1n19 ) ) 0 ) ( = ( + ( * ( - 1 ) lam1n1 ) ( * ( - 1 ) lam1n10 ) ( * ( - 1 ) lam1n11 ) ( * Nl7arg31 lam1n19 ) ) 0 ) ( = ( + ( * 1 lam1n2 ) ( * Nl7arg41 lam1n19 ) ( - ( + 0 ( * Nl8arg31 1 ) ) ) ) 0 ) ( = ( + ( * 1 lam1n13 ) ( * Nl7arg51 lam1n19 ) ( - ( + 0 ( * Nl8arg81 1 ) ) ) ) 0 ) ( = ( + ( * 1 lam1n14 ) ( * Nl7arg61 lam1n19 ) ( - ( + 0 ( * Nl8arg91 1 ) ) ) ) 0 ) ( = ( + ( * ( - 1 ) lam1n3 ) ( * Nl7arg71 lam1n19 ) ( - ( + 0 ( * Nl8arg131 1 ) ) ) ) 0 ) ( = ( + ( * ( - 1 ) lam1n2 ) ( * Nl7arg81 lam1n19 ) ( - ( + 0 ( * Nl8arg101 1 ) ) ) ) 0 ) ( = ( * Nl7arg91 lam1n19 ) 0 ) ( = ( * Nl7arg101 lam1n19 ) 0 ) ( = ( * Nl7arg111 lam1n19 ) 0 ) ( = ( * Nl7arg121 lam1n19 ) 0 ) ( = ( * Nl7arg131 lam1n19 ) 0 ) ( = ( + ( * 1 lam1n7 ) ( * ( - 1 ) lam1n18 ) ( - ( + 0 ( * Nl8arg11 1 ) ) ) ) 0 ) ( = ( + ( * ( - 1 ) lam1n4 ) ( * 1 lam1n8 ) ( * 1 lam1n10 ) ( * 1 lam1n15 ) ( - ( + 0 ( * Nl8arg21 1 ) ) ) ) 0 ) ( = ( + ( * ( - 1 ) lam1n12 ) ( - ( + 0 ( * Nl8arg41 1 ) ) ) ) 0 ) ( = ( + ( * ( - 1 ) lam1n5 ) ( - ( + 0 ( * Nl8arg51 1 ) ) ) ) 0 ) ( = ( + ( * ( - 1 ) lam1n6 ) ( * 1 lam1n9 ) ( * 1 lam1n11 ) ( * 1 lam1n16 ) ( - ( + 0 ( * Nl8arg61 1 ) ) ) ) 0 ) ( = ( - ( + 0 ( * Nl8arg71 1 ) ) ) 0 ) ( = ( - ( + 0 ( * Nl8arg111 1 ) ) ) 0 ) ( = ( - ( + 0 ( * Nl8arg121 1 ) ) ) 0 ) ) ))
(assert ( or ( and ( >= lam2n0 0 ) ( >= lam2n1 0 ) ( >= lam2n2 0 ) ( >= lam2n3 0 ) ( >= lam2n4 0 ) ( >= lam2n5 0 ) ( >= lam2n6 0 ) ( >= lam2n7 0 ) ( >= lam2n8 0 ) ( >= lam2n9 0 ) ( >= lam2n10 0 ) ( >= lam2n11 0 ) ( >= lam2n12 0 ) ( >= lam2n13 0 ) ( >= lam2n14 0 ) ( >= lam2n15 0 ) ( >= lam2n16 0 ) ( >= lam2n17 0 ) ( > ( + ( * 1 lam2n0 ) ( * 1 lam2n1 ) ( * 1 lam2n2 ) ( * 1 lam2n3 ) ( * 1 lam2n4 ) ( * 3 lam2n11 ) ( * 3 lam2n12 ) ( * 3 lam2n13 ) ( * 3 lam2n14 ) ( * 4 lam2n15 ) ( * 4 lam2n16 ) ( * Nl7CT1 lam2n17 ) ( - 1 ) ) 0 ) ( = ( + ( * ( - 1 ) lam2n5 ) ( * ( - 1 ) lam2n11 ) ( * ( - 1 ) lam2n12 ) ( * ( - 1 ) lam2n13 ) ( * ( - 1 ) lam2n14 ) ( * ( - 1 ) lam2n15 ) ( * Nl7arg11 lam2n17 ) ) 0 ) ( = ( + ( * ( - 1 ) lam2n0 ) ( * ( - 1 ) lam2n6 ) ( * ( - 1 ) lam2n7 ) ( * Nl7arg21 lam2n17 ) ) 0 ) ( = ( + ( * ( - 1 ) lam2n1 ) ( * ( - 1 ) lam2n8 ) ( * ( - 1 ) lam2n9 ) ( * Nl7arg31 lam2n17 ) ) 0 ) ( = ( + ( * 1 lam2n2 ) ( * Nl7arg41 lam2n17 ) ) 0 ) ( = ( + ( * 1 lam2n11 ) ( * Nl7arg51 lam2n17 ) ) 0 ) ( = ( + ( * 1 lam2n12 ) ( * Nl7arg61 lam2n17 ) ) 0 ) ( = ( * Nl7arg71 lam2n17 ) 0 ) ( = ( + ( * ( - 1 ) lam2n2 ) ( * ( - 1 ) lam2n10 ) ( * Nl7arg81 lam2n17 ) ) 0 ) ( = ( * Nl7arg91 lam2n17 ) 0 ) ( = ( * Nl7arg101 lam2n17 ) 0 ) ( = ( * Nl7arg111 lam2n17 ) 0 ) ( = ( * Nl7arg121 lam2n17 ) 0 ) ( = ( * Nl7arg131 lam2n17 ) 0 ) ( = ( + ( * 1 lam2n5 ) ( * ( - 1 ) lam2n16 ) ) 0 ) ( = ( + ( * ( - 1 ) lam2n3 ) ( * 1 lam2n6 ) ( * 1 lam2n8 ) ( * 1 lam2n13 ) ) 0 ) ( = ( + ( * ( - 1 ) lam2n4 ) ( * 1 lam2n7 ) ( * 1 lam2n9 ) ( * 1 lam2n14 ) ) 0 ) ) ( and ( >= lam3n0 0 ) ( >= lam3n1 0 ) ( >= lam3n2 0 ) ( >= lam3n3 0 ) ( >= lam3n4 0 ) ( >= lam3n5 0 ) ( >= lam3n6 0 ) ( >= lam3n7 0 ) ( >= lam3n8 0 ) ( >= lam3n9 0 ) ( >= lam3n10 0 ) ( >= lam3n11 0 ) ( >= lam3n12 0 ) ( >= lam3n13 0 ) ( >= lam3n14 0 ) ( >= lam3n15 0 ) ( >= lam3n16 0 ) ( >= lam3n17 0 ) ( > ( + ( * 1 lam3n0 ) ( * 1 lam3n1 ) ( * 1 lam3n2 ) ( * 1 lam3n3 ) ( * 1 lam3n4 ) ( * 3 lam3n11 ) ( * 3 lam3n12 ) ( * 3 lam3n13 ) ( * 3 lam3n14 ) ( * 4 lam3n15 ) ( * 4 lam3n16 ) ( * Nl7CT1 lam3n17 ) ( - 1 ( + ( + ( + ( + ( + ( + ( + ( + ( + Nl7CT1 ( * Nl7arg11 0 ) ) ( * Nl7arg21 0 ) ) ( * Nl7arg31 0 ) ) ( * Nl7arg41 1 ) ) ( * Nl7arg91 0 ) ) ( * Nl7arg101 0 ) ) ( * Nl7arg111 0 ) ) ( * Nl7arg121 0 ) ) ( * Nl7arg131 0 ) ) ) ) 0 ) ( = ( + ( * ( - 1 ) lam3n5 ) ( * ( - 1 ) lam3n11 ) ( * ( - 1 ) lam3n12 ) ( * ( - 1 ) lam3n13 ) ( * ( - 1 ) lam3n14 ) ( * ( - 1 ) lam3n15 ) ( * Nl7arg11 lam3n17 ) ) 0 ) ( = ( + ( * ( - 1 ) lam3n0 ) ( * ( - 1 ) lam3n6 ) ( * ( - 1 ) lam3n7 ) ( * Nl7arg21 lam3n17 ) ) 0 ) ( = ( + ( * ( - 1 ) lam3n1 ) ( * ( - 1 ) lam3n8 ) ( * ( - 1 ) lam3n9 ) ( * Nl7arg31 lam3n17 ) ) 0 ) ( = ( + ( * 1 lam3n2 ) ( * Nl7arg41 lam3n17 ) ( - ( + 0 ( * Nl7arg41 1 ) ) ) ) 0 ) ( = ( + ( * 1 lam3n11 ) ( * Nl7arg51 lam3n17 ) ( - ( + 0 Nl7arg51 ) ) ) 0 ) ( = ( + ( * 1 lam3n12 ) ( * Nl7arg61 lam3n17 ) ( - ( + 0 Nl7arg61 ) ) ) 0 ) ( = ( + ( * Nl7arg71 lam3n17 ) ( - ( + 0 Nl7arg71 ) ) ) 0 ) ( = ( + ( * ( - 1 ) lam3n2 ) ( * ( - 1 ) lam3n10 ) ( * Nl7arg81 lam3n17 ) ( - ( + 0 Nl7arg81 ) ) ) 0 ) ( = ( * Nl7arg91 lam3n17 ) 0 ) ( = ( * Nl7arg101 lam3n17 ) 0 ) ( = ( * Nl7arg111 lam3n17 ) 0 ) ( = ( * Nl7arg121 lam3n17 ) 0 ) ( = ( * Nl7arg131 lam3n17 ) 0 ) ( = ( + ( * 1 lam3n5 ) ( * ( - 1 ) lam3n16 ) ( - ( + 0 ( * Nl7arg11 1 ) ) ) ) 0 ) ( = ( + ( * ( - 1 ) lam3n3 ) ( * 1 lam3n6 ) ( * 1 lam3n8 ) ( * 1 lam3n13 ) ( - ( + 0 ( * Nl7arg21 1 ) ) ) ) 0 ) ( = ( + ( * ( - 1 ) lam3n4 ) ( * 1 lam3n7 ) ( * 1 lam3n9 ) ( * 1 lam3n14 ) ( - ( + 0 ( * Nl7arg31 1 ) ) ) ) 0 ) ( = ( - ( + 0 ( * Nl7arg91 1 ) ) ) 0 ) ( = ( - ( + 0 ( * Nl7arg101 1 ) ) ) 0 ) ( = ( - ( + 0 ( * Nl7arg111 1 ) ) ) 0 ) ( = ( - ( + 0 ( * Nl7arg121 1 ) ) ) 0 ) ( = ( - ( + 0 ( * Nl7arg131 1 ) ) ) 0 ) ) ))
(assert ( or ( and ( >= lam4n0 0 ) ( >= lam4n1 0 ) ( >= lam4n2 0 ) ( >= lam4n3 0 ) ( >= lam4n4 0 ) ( >= lam4n5 0 ) ( >= lam4n6 0 ) ( >= lam4n7 0 ) ( >= lam4n8 0 ) ( >= lam4n9 0 ) ( >= lam4n10 0 ) ( >= lam4n11 0 ) ( >= lam4n12 0 ) ( >= lam4n13 0 ) ( >= lam4n14 0 ) ( >= lam4n15 0 ) ( >= lam4n16 0 ) ( >= lam4n17 0 ) ( >= lam4n18 0 ) ( >= lam4n19 0 ) ( >= lam4n20 0 ) ( >= lam4n21 0 ) ( >= lam4n22 0 ) ( >= lam4n23 0 ) ( >= lam4n24 0 ) ( >= lam4n25 0 ) ( >= lam4n26 0 ) ( >= lam4n27 0 ) ( >= lam4n28 0 ) ( >= lam4n29 0 ) ( >= lam4n30 0 ) ( >= lam4n31 0 ) ( >= lam4n32 0 ) ( >= lam4n33 0 ) ( >= lam4n34 0 ) ( >= lam4n35 0 ) ( > ( + ( * 1 lam4n0 ) ( * 1 lam4n1 ) ( * 1 lam4n2 ) ( * 1 lam4n3 ) ( * 1 lam4n4 ) ( * 1 lam4n5 ) ( * 1 lam4n6 ) ( * 1 lam4n7 ) ( * 1 lam4n8 ) ( * 3 lam4n18 ) ( * 3 lam4n19 ) ( * 3 lam4n20 ) ( * 3 lam4n21 ) ( * 3 lam4n22 ) ( * 3 lam4n23 ) ( * 2 lam4n24 ) ( * 2 lam4n25 ) ( * 2 lam4n26 ) ( * 2 lam4n27 ) ( * 2 lam4n28 ) ( * 2 lam4n29 ) ( * 2 lam4n30 ) ( * 4 lam4n31 ) ( * 4 lam4n32 ) ( * 4 lam4n33 ) ( * 4 lam4n34 ) ( * Nl8CT1 lam4n35 ) ( - 1 ) ) 0 ) ( = ( + ( * ( - 1 ) lam4n9 ) ( * ( - 1 ) lam4n18 ) ( * ( - 1 ) lam4n19 ) ( * ( - 1 ) lam4n20 ) ( * ( - 1 ) lam4n21 ) ( * ( - 1 ) lam4n31 ) ( * Nl8arg11 lam4n35 ) ) 0 ) ( = ( + ( * ( - 1 ) lam4n0 ) ( * ( - 1 ) lam4n10 ) ( * ( - 1 ) lam4n11 ) ( * Nl8arg21 lam4n35 ) ) 0 ) ( = ( * Nl8arg31 lam4n35 ) 0 ) ( = ( + ( * ( - 1 ) lam4n1 ) ( * ( - 1 ) lam4n2 ) ( * ( - 1 ) lam4n12 ) ( * ( - 1 ) lam4n13 ) ( * ( - 1 ) lam4n14 ) ( * ( - 1 ) lam4n24 ) ( * ( - 1 ) lam4n25 ) ( * Nl8arg41 lam4n35 ) ) 0 ) ( = ( + ( * ( - 1 ) lam4n22 ) ( * ( - 1 ) lam4n23 ) ( * ( - 1 ) lam4n26 ) ( * ( - 1 ) lam4n27 ) ( * ( - 1 ) lam4n28 ) ( * ( - 1 ) lam4n29 ) ( * ( - 1 ) lam4n30 ) ( * ( - 1 ) lam4n32 ) ( * ( - 1 ) lam4n33 ) ( * Nl8arg51 lam4n35 ) ) 0 ) ( = ( + ( * ( - 1 ) lam4n3 ) ( * ( - 1 ) lam4n15 ) ( * ( - 1 ) lam4n16 ) ( * Nl8arg61 lam4n35 ) ) 0 ) ( = ( + ( * 1 lam4n4 ) ( * Nl8arg71 lam4n35 ) ) 0 ) ( = ( + ( * 1 lam4n18 ) ( * Nl8arg81 lam4n35 ) ) 0 ) ( = ( + ( * 1 lam4n19 ) ( * Nl8arg91 lam4n35 ) ) 0 ) ( = ( * Nl8arg101 lam4n35 ) 0 ) ( = ( + ( * 1 lam4n26 ) ( * Nl8arg111 lam4n35 ) ) 0 ) ( = ( + ( * 1 lam4n27 ) ( * Nl8arg121 lam4n35 ) ) 0 ) ( = ( + ( * ( - 1 ) lam4n4 ) ( * ( - 1 ) lam4n5 ) ( * Nl8arg131 lam4n35 ) ) 0 ) ( = ( + ( * 1 lam4n9 ) ( * ( - 1 ) lam4n34 ) ) 0 ) ( = ( + ( * ( - 1 ) lam4n6 ) ( * 1 lam4n10 ) ( * 1 lam4n12 ) ( * 1 lam4n15 ) ( * 1 lam4n20 ) ( * 1 lam4n28 ) ) 0 ) ( = ( + ( * 1 lam4n2 ) ( * ( - 1 ) lam4n17 ) ( * 1 lam4n23 ) ) 0 ) ( = ( + ( * ( - 1 ) lam4n7 ) ( * 1 lam4n13 ) ( * 1 lam4n29 ) ) 0 ) ( = ( + ( * ( - 1 ) lam4n8 ) ( * 1 lam4n11 ) ( * 1 lam4n14 ) ( * 1 lam4n16 ) ( * 1 lam4n21 ) ( * 1 lam4n30 ) ) 0 ) ( = ( + ( * 1 lam4n24 ) ( * 1 lam4n32 ) ) 0 ) ( = ( + ( * 1 lam4n25 ) ( * 1 lam4n33 ) ) 0 ) ) ( and ( >= lam5n0 0 ) ( >= lam5n1 0 ) ( >= lam5n2 0 ) ( >= lam5n3 0 ) ( >= lam5n4 0 ) ( >= lam5n5 0 ) ( >= lam5n6 0 ) ( >= lam5n7 0 ) ( >= lam5n8 0 ) ( >= lam5n9 0 ) ( >= lam5n10 0 ) ( >= lam5n11 0 ) ( >= lam5n12 0 ) ( >= lam5n13 0 ) ( >= lam5n14 0 ) ( >= lam5n15 0 ) ( >= lam5n16 0 ) ( >= lam5n17 0 ) ( >= lam5n18 0 ) ( >= lam5n19 0 ) ( >= lam5n20 0 ) ( >= lam5n21 0 ) ( >= lam5n22 0 ) ( >= lam5n23 0 ) ( >= lam5n24 0 ) ( >= lam5n25 0 ) ( >= lam5n26 0 ) ( >= lam5n27 0 ) ( >= lam5n28 0 ) ( >= lam5n29 0 ) ( >= lam5n30 0 ) ( >= lam5n31 0 ) ( >= lam5n32 0 ) ( >= lam5n33 0 ) ( >= lam5n34 0 ) ( >= lam5n35 0 ) ( > ( + ( * 1 lam5n0 ) ( * 1 lam5n1 ) ( * 1 lam5n2 ) ( * 1 lam5n3 ) ( * 1 lam5n4 ) ( * 1 lam5n5 ) ( * 1 lam5n6 ) ( * 1 lam5n7 ) ( * 1 lam5n8 ) ( * 3 lam5n18 ) ( * 3 lam5n19 ) ( * 3 lam5n20 ) ( * 3 lam5n21 ) ( * 3 lam5n22 ) ( * 3 lam5n23 ) ( * 2 lam5n24 ) ( * 2 lam5n25 ) ( * 2 lam5n26 ) ( * 2 lam5n27 ) ( * 2 lam5n28 ) ( * 2 lam5n29 ) ( * 2 lam5n30 ) ( * 4 lam5n31 ) ( * 4 lam5n32 ) ( * 4 lam5n33 ) ( * 4 lam5n34 ) ( * Nl8CT1 lam5n35 ) ( - 1 ( + ( + ( + ( + ( + ( + ( + ( + Nl8CT1 ( * Nl8arg11 0 ) ) ( * Nl8arg21 0 ) ) ( * Nl8arg41 0 ) ) ( * Nl8arg51 0 ) ) ( * Nl8arg61 0 ) ) ( * Nl8arg71 0 ) ) ( * Nl8arg111 0 ) ) ( * Nl8arg121 0 ) ) ) ) 0 ) ( = ( + ( * ( - 1 ) lam5n9 ) ( * ( - 1 ) lam5n18 ) ( * ( - 1 ) lam5n19 ) ( * ( - 1 ) lam5n20 ) ( * ( - 1 ) lam5n21 ) ( * ( - 1 ) lam5n31 ) ( * Nl8arg11 lam5n35 ) ) 0 ) ( = ( + ( * ( - 1 ) lam5n0 ) ( * ( - 1 ) lam5n10 ) ( * ( - 1 ) lam5n11 ) ( * Nl8arg21 lam5n35 ) ) 0 ) ( = ( + ( * Nl8arg31 lam5n35 ) ( - ( + 0 Nl8arg31 ) ) ) 0 ) ( = ( + ( * ( - 1 ) lam5n1 ) ( * ( - 1 ) lam5n2 ) ( * ( - 1 ) lam5n12 ) ( * ( - 1 ) lam5n13 ) ( * ( - 1 ) lam5n14 ) ( * ( - 1 ) lam5n24 ) ( * ( - 1 ) lam5n25 ) ( * Nl8arg41 lam5n35 ) ) 0 ) ( = ( + ( * ( - 1 ) lam5n22 ) ( * ( - 1 ) lam5n23 ) ( * ( - 1 ) lam5n26 ) ( * ( - 1 ) lam5n27 ) ( * ( - 1 ) lam5n28 ) ( * ( - 1 ) lam5n29 ) ( * ( - 1 ) lam5n30 ) ( * ( - 1 ) lam5n32 ) ( * ( - 1 ) lam5n33 ) ( * Nl8arg51 lam5n35 ) ) 0 ) ( = ( + ( * ( - 1 ) lam5n3 ) ( * ( - 1 ) lam5n15 ) ( * ( - 1 ) lam5n16 ) ( * Nl8arg61 lam5n35 ) ) 0 ) ( = ( + ( * 1 lam5n4 ) ( * Nl8arg71 lam5n35 ) ) 0 ) ( = ( + ( * 1 lam5n18 ) ( * Nl8arg81 lam5n35 ) ( - ( + 0 Nl8arg81 ) ) ) 0 ) ( = ( + ( * 1 lam5n19 ) ( * Nl8arg91 lam5n35 ) ( - ( + 0 Nl8arg91 ) ) ) 0 ) ( = ( + ( * Nl8arg101 lam5n35 ) ( - ( + 0 Nl8arg101 ) ) ) 0 ) ( = ( + ( * 1 lam5n26 ) ( * Nl8arg111 lam5n35 ) ) 0 ) ( = ( + ( * 1 lam5n27 ) ( * Nl8arg121 lam5n35 ) ) 0 ) ( = ( + ( * ( - 1 ) lam5n4 ) ( * ( - 1 ) lam5n5 ) ( * Nl8arg131 lam5n35 ) ( - ( + 0 Nl8arg131 ) ) ) 0 ) ( = ( + ( * 1 lam5n9 ) ( * ( - 1 ) lam5n34 ) ( - ( + 0 ( * Nl8arg11 1 ) ) ) ) 0 ) ( = ( + ( * ( - 1 ) lam5n6 ) ( * 1 lam5n10 ) ( * 1 lam5n12 ) ( * 1 lam5n15 ) ( * 1 lam5n20 ) ( * 1 lam5n28 ) ( - ( + 0 ( * Nl8arg21 1 ) ) ) ) 0 ) ( = ( + ( * 1 lam5n2 ) ( * ( - 1 ) lam5n17 ) ( * 1 lam5n23 ) ( - ( + 0 ( * Nl8arg41 1 ) ) ) ) 0 ) ( = ( + ( * ( - 1 ) lam5n7 ) ( * 1 lam5n13 ) ( * 1 lam5n29 ) ( - ( + 0 ( * Nl8arg51 1 ) ) ) ) 0 ) ( = ( + ( * ( - 1 ) lam5n8 ) ( * 1 lam5n11 ) ( * 1 lam5n14 ) ( * 1 lam5n16 ) ( * 1 lam5n21 ) ( * 1 lam5n30 ) ( - ( + 0 ( * Nl8arg61 1 ) ) ) ) 0 ) ( = ( - ( + 0 ( * Nl8arg71 1 ) ) ) 0 ) ( = ( + ( * 1 lam5n24 ) ( * 1 lam5n32 ) ( - ( + 0 ( * Nl8arg111 1 ) ) ) ) 0 ) ( = ( + ( * 1 lam5n25 ) ( * 1 lam5n33 ) ( - ( + 0 ( * Nl8arg121 1 ) ) ) ) 0 ) ) ))
(assert ( or ( and ( >= lam6n0 0 ) ( >= lam6n1 0 ) ( >= lam6n2 0 ) ( >= lam6n3 0 ) ( >= lam6n4 0 ) ( >= lam6n5 0 ) ( >= lam6n6 0 ) ( >= lam6n7 0 ) ( >= lam6n8 0 ) ( >= lam6n9 0 ) ( >= lam6n10 0 ) ( >= lam6n11 0 ) ( >= lam6n12 0 ) ( >= lam6n13 0 ) ( >= lam6n14 0 ) ( >= lam6n15 0 ) ( >= lam6n16 0 ) ( >= lam6n17 0 ) ( >= lam6n18 0 ) ( >= lam6n19 0 ) ( >= lam6n20 0 ) ( >= lam6n21 0 ) ( >= lam6n22 0 ) ( >= lam6n23 0 ) ( >= lam6n24 0 ) ( >= lam6n25 0 ) ( > ( + ( * 1 lam6n0 ) ( * 1 lam6n1 ) ( * 1 lam6n2 ) ( * 1 lam6n3 ) ( * 1 lam6n4 ) ( * 1 lam6n5 ) ( * 1 lam6n6 ) ( * ( - 1 ) lam6n7 ) ( * ( - 1 ) lam6n8 ) ( * 3 lam6n16 ) ( * 3 lam6n17 ) ( * 3 lam6n18 ) ( * 3 lam6n19 ) ( * 2 lam6n20 ) ( * 2 lam6n21 ) ( * 2 lam6n22 ) ( * 4 lam6n23 ) ( * 4 lam6n24 ) ( * Nl8CT1 lam6n25 ) ( - 1 ) ) 0 ) ( = ( + ( * ( - 1 ) lam6n9 ) ( * ( - 1 ) lam6n16 ) ( * ( - 1 ) lam6n17 ) ( * ( - 1 ) lam6n18 ) ( * ( - 1 ) lam6n19 ) ( * ( - 1 ) lam6n23 ) ( * Nl8arg11 lam6n25 ) ) 0 ) ( = ( + ( * ( - 1 ) lam6n0 ) ( * ( - 1 ) lam6n10 ) ( * ( - 1 ) lam6n11 ) ( * Nl8arg21 lam6n25 ) ) 0 ) ( = ( * Nl8arg31 lam6n25 ) 0 ) ( = ( + ( * ( - 1 ) lam6n7 ) ( * ( - 1 ) lam6n8 ) ( * ( - 1 ) lam6n12 ) ( * Nl8arg41 lam6n25 ) ) 0 ) ( = ( + ( * ( - 1 ) lam6n1 ) ( * ( - 1 ) lam6n2 ) ( * ( - 1 ) lam6n20 ) ( * ( - 1 ) lam6n21 ) ( * ( - 1 ) lam6n22 ) ( * Nl8arg51 lam6n25 ) ) 0 ) ( = ( + ( * ( - 1 ) lam6n3 ) ( * ( - 1 ) lam6n13 ) ( * ( - 1 ) lam6n14 ) ( * Nl8arg61 lam6n25 ) ) 0 ) ( = ( + ( * 1 lam6n4 ) ( * Nl8arg71 lam6n25 ) ) 0 ) ( = ( + ( * 1 lam6n16 ) ( * Nl8arg81 lam6n25 ) ) 0 ) ( = ( + ( * 1 lam6n17 ) ( * Nl8arg91 lam6n25 ) ) 0 ) ( = ( + ( * ( - 1 ) lam6n15 ) ( * Nl8arg101 lam6n25 ) ) 0 ) ( = ( + ( * 1 lam6n21 ) ( * Nl8arg111 lam6n25 ) ) 0 ) ( = ( + ( * 1 lam6n22 ) ( * Nl8arg121 lam6n25 ) ) 0 ) ( = ( + ( * ( - 1 ) lam6n4 ) ( * Nl8arg131 lam6n25 ) ) 0 ) ( = ( + ( * 1 lam6n9 ) ( * ( - 1 ) lam6n24 ) ) 0 ) ( = ( + ( * 1 lam6n1 ) ( * ( - 1 ) lam6n5 ) ( * 1 lam6n7 ) ( * 1 lam6n10 ) ( * 1 lam6n13 ) ( * 1 lam6n18 ) ) 0 ) ( = ( + ( * 1 lam6n2 ) ( * ( - 1 ) lam6n6 ) ( * 1 lam6n8 ) ( * 1 lam6n11 ) ( * 1 lam6n14 ) ( * 1 lam6n19 ) ) 0 ) ) ( and ( >= lam7n0 0 ) ( >= lam7n1 0 ) ( >= lam7n2 0 ) ( >= lam7n3 0 ) ( >= lam7n4 0 ) ( >= lam7n5 0 ) ( >= lam7n6 0 ) ( >= lam7n7 0 ) ( >= lam7n8 0 ) ( >= lam7n9 0 ) ( >= lam7n10 0 ) ( >= lam7n11 0 ) ( >= lam7n12 0 ) ( >= lam7n13 0 ) ( >= lam7n14 0 ) ( >= lam7n15 0 ) ( >= lam7n16 0 ) ( >= lam7n17 0 ) ( >= lam7n18 0 ) ( >= lam7n19 0 ) ( >= lam7n20 0 ) ( >= lam7n21 0 ) ( >= lam7n22 0 ) ( >= lam7n23 0 ) ( >= lam7n24 0 ) ( >= lam7n25 0 ) ( > ( + ( * 1 lam7n0 ) ( * 1 lam7n1 ) ( * 1 lam7n2 ) ( * 1 lam7n3 ) ( * 1 lam7n4 ) ( * 1 lam7n5 ) ( * 1 lam7n6 ) ( * ( - 1 ) lam7n7 ) ( * ( - 1 ) lam7n8 ) ( * 3 lam7n16 ) ( * 3 lam7n17 ) ( * 3 lam7n18 ) ( * 3 lam7n19 ) ( * 2 lam7n20 ) ( * 2 lam7n21 ) ( * 2 lam7n22 ) ( * 4 lam7n23 ) ( * 4 lam7n24 ) ( * Nl8CT1 lam7n25 ) ( - 1 ( + ( + ( + ( + ( + ( + ( + ( + ( + ( + ( + ( + ( + Nl7CT1 ( * Nl7arg11 0 ) ) ( * Nl7arg21 0 ) ) ( * Nl7arg31 0 ) ) ( * Nl7arg41 1 ) ) ( * Nl7arg51 0 ) ) ( * Nl7arg61 0 ) ) ( * Nl7arg71 0 ) ) ( * Nl7arg81 0 ) ) ( * Nl7arg91 0 ) ) ( * Nl7arg101 0 ) ) ( * Nl7arg111 0 ) ) ( * Nl7arg121 0 ) ) ( * Nl7arg131 0 ) ) ) ) 0 ) ( = ( + ( * ( - 1 ) lam7n9 ) ( * ( - 1 ) lam7n16 ) ( * ( - 1 ) lam7n17 ) ( * ( - 1 ) lam7n18 ) ( * ( - 1 ) lam7n19 ) ( * ( - 1 ) lam7n23 ) ( * Nl8arg11 lam7n25 ) ) 0 ) ( = ( + ( * ( - 1 ) lam7n0 ) ( * ( - 1 ) lam7n10 ) ( * ( - 1 ) lam7n11 ) ( * Nl8arg21 lam7n25 ) ) 0 ) ( = ( + ( * Nl8arg31 lam7n25 ) ( - ( + 0 ( * Nl7arg41 1 ) ) ) ) 0 ) ( = ( + ( * ( - 1 ) lam7n7 ) ( * ( - 1 ) lam7n8 ) ( * ( - 1 ) lam7n12 ) ( * Nl8arg41 lam7n25 ) ) 0 ) ( = ( + ( * ( - 1 ) lam7n1 ) ( * ( - 1 ) lam7n2 ) ( * ( - 1 ) lam7n20 ) ( * ( - 1 ) lam7n21 ) ( * ( - 1 ) lam7n22 ) ( * Nl8arg51 lam7n25 ) ) 0 ) ( = ( + ( * ( - 1 ) lam7n3 ) ( * ( - 1 ) lam7n13 ) ( * ( - 1 ) lam7n14 ) ( * Nl8arg61 lam7n25 ) ) 0 ) ( = ( + ( * 1 lam7n4 ) ( * Nl8arg71 lam7n25 ) ) 0 ) ( = ( + ( * 1 lam7n16 ) ( * Nl8arg81 lam7n25 ) ( - ( + 0 ( * Nl7arg51 1 ) ) ) ) 0 ) ( = ( + ( * 1 lam7n17 ) ( * Nl8arg91 lam7n25 ) ( - ( + 0 ( * Nl7arg61 1 ) ) ) ) 0 ) ( = ( + ( * ( - 1 ) lam7n15 ) ( * Nl8arg101 lam7n25 ) ( - ( + 0 ( * Nl7arg81 1 ) ) ) ) 0 ) ( = ( + ( * 1 lam7n21 ) ( * Nl8arg111 lam7n25 ) ) 0 ) ( = ( + ( * 1 lam7n22 ) ( * Nl8arg121 lam7n25 ) ) 0 ) ( = ( + ( * ( - 1 ) lam7n4 ) ( * Nl8arg131 lam7n25 ) ( - ( + 0 ( * Nl7arg71 1 ) ) ) ) 0 ) ( = ( + ( * 1 lam7n9 ) ( * ( - 1 ) lam7n24 ) ( - ( + 0 ( * Nl7arg11 1 ) ) ) ) 0 ) ( = ( + ( * 1 lam7n1 ) ( * ( - 1 ) lam7n5 ) ( * 1 lam7n7 ) ( * 1 lam7n10 ) ( * 1 lam7n13 ) ( * 1 lam7n18 ) ( - ( + 0 ( * Nl7arg21 1 ) ) ) ) 0 ) ( = ( + ( * 1 lam7n2 ) ( * ( - 1 ) lam7n6 ) ( * 1 lam7n8 ) ( * 1 lam7n11 ) ( * 1 lam7n14 ) ( * 1 lam7n19 ) ( - ( + 0 ( * Nl7arg31 1 ) ) ) ) 0 ) ( = ( - ( + 0 ( * Nl7arg91 1 ) ) ) 0 ) ( = ( - ( + 0 ( * Nl7arg101 1 ) ) ) 0 ) ( = ( - ( + 0 ( * Nl7arg111 1 ) ) ) 0 ) ( = ( - ( + 0 ( * Nl7arg121 1 ) ) ) 0 ) ( = ( - ( + 0 ( * Nl7arg131 1 ) ) ) 0 ) ) ))
(assert ( and ( and ( >= lam8n0 0 ) ( >= lam8n1 0 ) ( >= lam8n2 0 ) ( >= lam8n3 0 ) ( >= lam8n4 0 ) ( >= lam8n5 0 ) ( >= lam8n6 0 ) ( >= lam8n7 0 ) ( >= lam8n8 0 ) ( >= lam8n9 0 ) ( >= lam8n10 0 ) ( >= lam8n11 0 ) ( >= lam8n12 0 ) ( >= lam8n13 0 ) ( >= lam8n14 0 ) ( >= lam8n15 0 ) ( > ( + ( * 1 lam8n0 ) ( * 1 lam8n1 ) ( * 1 lam8n2 ) ( * ( - 1 ) lam8n3 ) ( * ( - 1 ) lam8n4 ) ( * ( - 1 ) lam8n5 ) ( * 3 lam8n8 ) ( * 3 lam8n9 ) ( * 3 lam8n10 ) ( * 3 lam8n11 ) ( * 2 lam8n12 ) ( * 4 lam8n13 ) ( * 4 lam8n14 ) ( * ( - 1073741823 ) lam8n15 ) ( - 1 ( + ( + ( + ( + ( + ( + ( + ( + ( + ( + ( + ( + ( + Nl7CT1 ( * Nl7arg11 0 ) ) ( * Nl7arg21 0 ) ) ( * Nl7arg31 0 ) ) ( * Nl7arg41 0 ) ) ( * Nl7arg51 1 ) ) ( * Nl7arg61 0 ) ) ( * Nl7arg71 0 ) ) ( * Nl7arg81 0 ) ) ( * Nl7arg91 0 ) ) ( * Nl7arg101 0 ) ) ( * Nl7arg111 0 ) ) ( * Nl7arg121 0 ) ) ( * Nl7arg131 0 ) ) ) ) 0 ) ( = ( + ( * ( - 1 ) lam8n3 ) ( * ( - 1 ) lam8n8 ) ( * ( - 1 ) lam8n9 ) ( * ( - 1 ) lam8n10 ) ( * ( - 1 ) lam8n11 ) ( * ( - 1 ) lam8n13 ) ) 0 ) ( = ( * 1 lam8n0 ) 0 ) ( = ( + ( * ( - 1 ) lam8n4 ) ( * ( - 1 ) lam8n5 ) ( * ( - 1 ) lam8n6 ) ) 0 ) ( = ( + ( * ( - 1 ) lam8n0 ) ( * ( - 1 ) lam8n12 ) ( * 1 lam8n15 ) ( - ( + ( + 0 ( * Nl7arg71 2 ) ) ( * Nl7arg81 1 ) ) ) ) 0 ) ( = ( + ( * ( - 1 ) lam8n7 ) ( * 1 lam8n8 ) ( - ( + 0 ( * Nl7arg51 1 ) ) ) ) 0 ) ( = ( + ( * 1 lam8n7 ) ( * 1 lam8n9 ) ( - ( + 0 ( * Nl7arg61 1 ) ) ) ) 0 ) ( = ( + ( * 1 lam8n3 ) ( * ( - 1 ) lam8n14 ) ( - ( + 0 ( * Nl7arg11 1 ) ) ) ) 0 ) ( = ( + ( * ( - 1 ) lam8n1 ) ( * 1 lam8n4 ) ( * 1 lam8n10 ) ( - ( + 0 ( * Nl7arg21 1 ) ) ) ) 0 ) ( = ( + ( * ( - 1 ) lam8n2 ) ( * 1 lam8n5 ) ( * 1 lam8n11 ) ( - ( + 0 ( * Nl7arg31 1 ) ) ) ) 0 ) ( = ( - ( + 0 ( * Nl7arg91 1 ) ) ) 0 ) ( = ( - ( + 0 ( * Nl7arg101 1 ) ) ) 0 ) ( = ( - ( + 0 ( * Nl7arg111 1 ) ) ) 0 ) ( = ( - ( + 0 ( * Nl7arg121 1 ) ) ) 0 ) ( = ( - ( + 0 ( * Nl7arg131 1 ) ) ) 0 ) ) ( and ( >= lam9n0 0 ) ( >= lam9n1 0 ) ( >= lam9n2 0 ) ( >= lam9n3 0 ) ( >= lam9n4 0 ) ( >= lam9n5 0 ) ( >= lam9n6 0 ) ( >= lam9n7 0 ) ( >= lam9n8 0 ) ( >= lam9n9 0 ) ( >= lam9n10 0 ) ( >= lam9n11 0 ) ( >= lam9n12 0 ) ( >= lam9n13 0 ) ( >= lam9n14 0 ) ( > ( + ( * 1 lam9n0 ) ( * 1 lam9n1 ) ( * 1 lam9n2 ) ( * ( - 1 ) lam9n3 ) ( * ( - 1 ) lam9n4 ) ( * ( - 1 ) lam9n5 ) ( * 3 lam9n8 ) ( * 3 lam9n9 ) ( * 3 lam9n10 ) ( * 3 lam9n11 ) ( * 4 lam9n12 ) ( * 4 lam9n13 ) ( * 1073741825 lam9n14 ) ( - 1 ( + ( + ( + ( + ( + ( + ( + ( + ( + ( + ( + ( + ( + Nl7CT1 ( * Nl7arg11 0 ) ) ( * Nl7arg21 0 ) ) ( * Nl7arg31 0 ) ) ( * Nl7arg41 0 ) ) ( * Nl7arg51 1 ) ) ( * Nl7arg61 0 ) ) ( * Nl7arg71 0 ) ) ( * Nl7arg81 0 ) ) ( * Nl7arg91 0 ) ) ( * Nl7arg101 0 ) ) ( * Nl7arg111 0 ) ) ( * Nl7arg121 0 ) ) ( * Nl7arg131 0 ) ) ) ) 0 ) ( = ( + ( * ( - 1 ) lam9n3 ) ( * ( - 1 ) lam9n8 ) ( * ( - 1 ) lam9n9 ) ( * ( - 1 ) lam9n10 ) ( * ( - 1 ) lam9n11 ) ( * ( - 1 ) lam9n12 ) ) 0 ) ( = ( * 1 lam9n0 ) 0 ) ( = ( + ( * ( - 1 ) lam9n4 ) ( * ( - 1 ) lam9n5 ) ( * ( - 1 ) lam9n6 ) ) 0 ) ( = ( + ( * ( - 1 ) lam9n0 ) ( * ( - 1 ) lam9n14 ) ( - ( + ( + 0 ( * Nl7arg71 2 ) ) ( * Nl7arg81 1 ) ) ) ) 0 ) ( = ( + ( * ( - 1 ) lam9n7 ) ( * 1 lam9n8 ) ( - ( + 0 ( * Nl7arg51 1 ) ) ) ) 0 ) ( = ( + ( * 1 lam9n7 ) ( * 1 lam9n9 ) ( - ( + 0 ( * Nl7arg61 1 ) ) ) ) 0 ) ( = ( + ( * 1 lam9n3 ) ( * ( - 1 ) lam9n13 ) ( - ( + 0 ( * Nl7arg11 1 ) ) ) ) 0 ) ( = ( + ( * ( - 1 ) lam9n1 ) ( * 1 lam9n4 ) ( * 1 lam9n10 ) ( - ( + 0 ( * Nl7arg21 1 ) ) ) ) 0 ) ( = ( + ( * ( - 1 ) lam9n2 ) ( * 1 lam9n5 ) ( * 1 lam9n11 ) ( - ( + 0 ( * Nl7arg31 1 ) ) ) ) 0 ) ( = ( - ( + 0 ( * Nl7arg91 1 ) ) ) 0 ) ( = ( - ( + 0 ( * Nl7arg101 1 ) ) ) 0 ) ( = ( - ( + 0 ( * Nl7arg111 1 ) ) ) 0 ) ( = ( - ( + 0 ( * Nl7arg121 1 ) ) ) 0 ) ( = ( - ( + 0 ( * Nl7arg131 1 ) ) ) 0 ) ) ))
(assert ( or ( and ( >= lam0n0 0 ) ( >= lam0n1 0 ) ( >= lam0n2 0 ) ( >= lam0n3 0 ) ( >= lam0n4 0 ) ( >= lam0n5 0 ) ( >= lam0n6 0 ) ( >= lam0n7 0 ) ( >= lam0n8 0 ) ( >= lam0n9 0 ) ( >= lam0n10 0 ) ( >= lam0n11 0 ) ( >= lam0n12 0 ) ( >= lam0n13 0 ) ( >= lam0n14 0 ) ( >= lam0n15 0 ) ( >= lam0n16 0 ) ( >= lam0n17 0 ) ( >= lam0n18 0 ) ( >= lam0n19 0 ) ( > ( + ( * 1 lam0n0 ) ( * 1 lam0n1 ) ( * 1 lam0n2 ) ( * 1 lam0n3 ) ( * 1 lam0n4 ) ( * 1 lam0n5 ) ( * 1 lam0n6 ) ( * 3 lam0n13 ) ( * 3 lam0n14 ) ( * 3 lam0n15 ) ( * 3 lam0n16 ) ( * 4 lam0n17 ) ( * 4 lam0n18 ) ( * Nl7CT1 lam0n19 ) ( - 1 ) ) 0 ) ( = ( + ( * ( - 1 ) lam0n7 ) ( * ( - 1 ) lam0n13 ) ( * ( - 1 ) lam0n14 ) ( * ( - 1 ) lam0n15 ) ( * ( - 1 ) lam0n16 ) ( * ( - 1 ) lam0n17 ) ( * Nl7arg11 lam0n19 ) ) 0 ) ( = ( + ( * ( - 1 ) lam0n0 ) ( * ( - 1 ) lam0n8 ) ( * ( - 1 ) lam0n9 ) ( * Nl7arg21 lam0n19 ) ) 0 ) ( = ( + ( * ( - 1 ) lam0n1 ) ( * ( - 1 ) lam0n10 ) ( * ( - 1 ) lam0n11 ) ( * Nl7arg31 lam0n19 ) ) 0 ) ( = ( + ( * 1 lam0n2 ) ( * Nl7arg41 lam0n19 ) ) 0 ) ( = ( + ( * 1 lam0n13 ) ( * Nl7arg51 lam0n19 ) ) 0 ) ( = ( + ( * 1 lam0n14 ) ( * Nl7arg61 lam0n19 ) ) 0 ) ( = ( + ( * ( - 1 ) lam0n3 ) ( * Nl7arg71 lam0n19 ) ) 0 ) ( = ( + ( * ( - 1 ) lam0n2 ) ( * Nl7arg81 lam0n19 ) ) 0 ) ( = ( * Nl7arg91 lam0n19 ) 0 ) ( = ( * Nl7arg101 lam0n19 ) 0 ) ( = ( * Nl7arg111 lam0n19 ) 0 ) ( = ( * Nl7arg121 lam0n19 ) 0 ) ( = ( * Nl7arg131 lam0n19 ) 0 ) ( = ( + ( * 1 lam0n7 ) ( * ( - 1 ) lam0n18 ) ) 0 ) ( = ( + ( * ( - 1 ) lam0n4 ) ( * 1 lam0n8 ) ( * 1 lam0n10 ) ( * 1 lam0n15 ) ) 0 ) ( = ( * ( - 1 ) lam0n12 ) 0 ) ( = ( * ( - 1 ) lam0n5 ) 0 ) ( = ( + ( * ( - 1 ) lam0n6 ) ( * 1 lam0n9 ) ( * 1 lam0n11 ) ( * 1 lam0n16 ) ) 0 ) ) ( and ( >= lam2n0 0 ) ( >= lam2n1 0 ) ( >= lam2n2 0 ) ( >= lam2n3 0 ) ( >= lam2n4 0 ) ( >= lam2n5 0 ) ( >= lam2n6 0 ) ( >= lam2n7 0 ) ( >= lam2n8 0 ) ( >= lam2n9 0 ) ( >= lam2n10 0 ) ( >= lam2n11 0 ) ( >= lam2n12 0 ) ( >= lam2n13 0 ) ( >= lam2n14 0 ) ( >= lam2n15 0 ) ( >= lam2n16 0 ) ( >= lam2n17 0 ) ( > ( + ( * 1 lam2n0 ) ( * 1 lam2n1 ) ( * 1 lam2n2 ) ( * 1 lam2n3 ) ( * 1 lam2n4 ) ( * 3 lam2n11 ) ( * 3 lam2n12 ) ( * 3 lam2n13 ) ( * 3 lam2n14 ) ( * 4 lam2n15 ) ( * 4 lam2n16 ) ( * Nl7CT1 lam2n17 ) ( - 1 ) ) 0 ) ( = ( + ( * ( - 1 ) lam2n5 ) ( * ( - 1 ) lam2n11 ) ( * ( - 1 ) lam2n12 ) ( * ( - 1 ) lam2n13 ) ( * ( - 1 ) lam2n14 ) ( * ( - 1 ) lam2n15 ) ( * Nl7arg11 lam2n17 ) ) 0 ) ( = ( + ( * ( - 1 ) lam2n0 ) ( * ( - 1 ) lam2n6 ) ( * ( - 1 ) lam2n7 ) ( * Nl7arg21 lam2n17 ) ) 0 ) ( = ( + ( * ( - 1 ) lam2n1 ) ( * ( - 1 ) lam2n8 ) ( * ( - 1 ) lam2n9 ) ( * Nl7arg31 lam2n17 ) ) 0 ) ( = ( + ( * 1 lam2n2 ) ( * Nl7arg41 lam2n17 ) ) 0 ) ( = ( + ( * 1 lam2n11 ) ( * Nl7arg51 lam2n17 ) ) 0 ) ( = ( + ( * 1 lam2n12 ) ( * Nl7arg61 lam2n17 ) ) 0 ) ( = ( * Nl7arg71 lam2n17 ) 0 ) ( = ( + ( * ( - 1 ) lam2n2 ) ( * ( - 1 ) lam2n10 ) ( * Nl7arg81 lam2n17 ) ) 0 ) ( = ( * Nl7arg91 lam2n17 ) 0 ) ( = ( * Nl7arg101 lam2n17 ) 0 ) ( = ( * Nl7arg111 lam2n17 ) 0 ) ( = ( * Nl7arg121 lam2n17 ) 0 ) ( = ( * Nl7arg131 lam2n17 ) 0 ) ( = ( + ( * 1 lam2n5 ) ( * ( - 1 ) lam2n16 ) ) 0 ) ( = ( + ( * ( - 1 ) lam2n3 ) ( * 1 lam2n6 ) ( * 1 lam2n8 ) ( * 1 lam2n13 ) ) 0 ) ( = ( + ( * ( - 1 ) lam2n4 ) ( * 1 lam2n7 ) ( * 1 lam2n9 ) ( * 1 lam2n14 ) ) 0 ) ) ( and ( >= lam4n0 0 ) ( >= lam4n1 0 ) ( >= lam4n2 0 ) ( >= lam4n3 0 ) ( >= lam4n4 0 ) ( >= lam4n5 0 ) ( >= lam4n6 0 ) ( >= lam4n7 0 ) ( >= lam4n8 0 ) ( >= lam4n9 0 ) ( >= lam4n10 0 ) ( >= lam4n11 0 ) ( >= lam4n12 0 ) ( >= lam4n13 0 ) ( >= lam4n14 0 ) ( >= lam4n15 0 ) ( >= lam4n16 0 ) ( >= lam4n17 0 ) ( >= lam4n18 0 ) ( >= lam4n19 0 ) ( >= lam4n20 0 ) ( >= lam4n21 0 ) ( >= lam4n22 0 ) ( >= lam4n23 0 ) ( >= lam4n24 0 ) ( >= lam4n25 0 ) ( >= lam4n26 0 ) ( >= lam4n27 0 ) ( >= lam4n28 0 ) ( >= lam4n29 0 ) ( >= lam4n30 0 ) ( >= lam4n31 0 ) ( >= lam4n32 0 ) ( >= lam4n33 0 ) ( >= lam4n34 0 ) ( >= lam4n35 0 ) ( > ( + ( * 1 lam4n0 ) ( * 1 lam4n1 ) ( * 1 lam4n2 ) ( * 1 lam4n3 ) ( * 1 lam4n4 ) ( * 1 lam4n5 ) ( * 1 lam4n6 ) ( * 1 lam4n7 ) ( * 1 lam4n8 ) ( * 3 lam4n18 ) ( * 3 lam4n19 ) ( * 3 lam4n20 ) ( * 3 lam4n21 ) ( * 3 lam4n22 ) ( * 3 lam4n23 ) ( * 2 lam4n24 ) ( * 2 lam4n25 ) ( * 2 lam4n26 ) ( * 2 lam4n27 ) ( * 2 lam4n28 ) ( * 2 lam4n29 ) ( * 2 lam4n30 ) ( * 4 lam4n31 ) ( * 4 lam4n32 ) ( * 4 lam4n33 ) ( * 4 lam4n34 ) ( * Nl8CT1 lam4n35 ) ( - 1 ) ) 0 ) ( = ( + ( * ( - 1 ) lam4n9 ) ( * ( - 1 ) lam4n18 ) ( * ( - 1 ) lam4n19 ) ( * ( - 1 ) lam4n20 ) ( * ( - 1 ) lam4n21 ) ( * ( - 1 ) lam4n31 ) ( * Nl8arg11 lam4n35 ) ) 0 ) ( = ( + ( * ( - 1 ) lam4n0 ) ( * ( - 1 ) lam4n10 ) ( * ( - 1 ) lam4n11 ) ( * Nl8arg21 lam4n35 ) ) 0 ) ( = ( * Nl8arg31 lam4n35 ) 0 ) ( = ( + ( * ( - 1 ) lam4n1 ) ( * ( - 1 ) lam4n2 ) ( * ( - 1 ) lam4n12 ) ( * ( - 1 ) lam4n13 ) ( * ( - 1 ) lam4n14 ) ( * ( - 1 ) lam4n24 ) ( * ( - 1 ) lam4n25 ) ( * Nl8arg41 lam4n35 ) ) 0 ) ( = ( + ( * ( - 1 ) lam4n22 ) ( * ( - 1 ) lam4n23 ) ( * ( - 1 ) lam4n26 ) ( * ( - 1 ) lam4n27 ) ( * ( - 1 ) lam4n28 ) ( * ( - 1 ) lam4n29 ) ( * ( - 1 ) lam4n30 ) ( * ( - 1 ) lam4n32 ) ( * ( - 1 ) lam4n33 ) ( * Nl8arg51 lam4n35 ) ) 0 ) ( = ( + ( * ( - 1 ) lam4n3 ) ( * ( - 1 ) lam4n15 ) ( * ( - 1 ) lam4n16 ) ( * Nl8arg61 lam4n35 ) ) 0 ) ( = ( + ( * 1 lam4n4 ) ( * Nl8arg71 lam4n35 ) ) 0 ) ( = ( + ( * 1 lam4n18 ) ( * Nl8arg81 lam4n35 ) ) 0 ) ( = ( + ( * 1 lam4n19 ) ( * Nl8arg91 lam4n35 ) ) 0 ) ( = ( * Nl8arg101 lam4n35 ) 0 ) ( = ( + ( * 1 lam4n26 ) ( * Nl8arg111 lam4n35 ) ) 0 ) ( = ( + ( * 1 lam4n27 ) ( * Nl8arg121 lam4n35 ) ) 0 ) ( = ( + ( * ( - 1 ) lam4n4 ) ( * ( - 1 ) lam4n5 ) ( * Nl8arg131 lam4n35 ) ) 0 ) ( = ( + ( * 1 lam4n9 ) ( * ( - 1 ) lam4n34 ) ) 0 ) ( = ( + ( * ( - 1 ) lam4n6 ) ( * 1 lam4n10 ) ( * 1 lam4n12 ) ( * 1 lam4n15 ) ( * 1 lam4n20 ) ( * 1 lam4n28 ) ) 0 ) ( = ( + ( * 1 lam4n2 ) ( * ( - 1 ) lam4n17 ) ( * 1 lam4n23 ) ) 0 ) ( = ( + ( * ( - 1 ) lam4n7 ) ( * 1 lam4n13 ) ( * 1 lam4n29 ) ) 0 ) ( = ( + ( * ( - 1 ) lam4n8 ) ( * 1 lam4n11 ) ( * 1 lam4n14 ) ( * 1 lam4n16 ) ( * 1 lam4n21 ) ( * 1 lam4n30 ) ) 0 ) ( = ( + ( * 1 lam4n24 ) ( * 1 lam4n32 ) ) 0 ) ( = ( + ( * 1 lam4n25 ) ( * 1 lam4n33 ) ) 0 ) ) ( and ( >= lam6n0 0 ) ( >= lam6n1 0 ) ( >= lam6n2 0 ) ( >= lam6n3 0 ) ( >= lam6n4 0 ) ( >= lam6n5 0 ) ( >= lam6n6 0 ) ( >= lam6n7 0 ) ( >= lam6n8 0 ) ( >= lam6n9 0 ) ( >= lam6n10 0 ) ( >= lam6n11 0 ) ( >= lam6n12 0 ) ( >= lam6n13 0 ) ( >= lam6n14 0 ) ( >= lam6n15 0 ) ( >= lam6n16 0 ) ( >= lam6n17 0 ) ( >= lam6n18 0 ) ( >= lam6n19 0 ) ( >= lam6n20 0 ) ( >= lam6n21 0 ) ( >= lam6n22 0 ) ( >= lam6n23 0 ) ( >= lam6n24 0 ) ( >= lam6n25 0 ) ( > ( + ( * 1 lam6n0 ) ( * 1 lam6n1 ) ( * 1 lam6n2 ) ( * 1 lam6n3 ) ( * 1 lam6n4 ) ( * 1 lam6n5 ) ( * 1 lam6n6 ) ( * ( - 1 ) lam6n7 ) ( * ( - 1 ) lam6n8 ) ( * 3 lam6n16 ) ( * 3 lam6n17 ) ( * 3 lam6n18 ) ( * 3 lam6n19 ) ( * 2 lam6n20 ) ( * 2 lam6n21 ) ( * 2 lam6n22 ) ( * 4 lam6n23 ) ( * 4 lam6n24 ) ( * Nl8CT1 lam6n25 ) ( - 1 ) ) 0 ) ( = ( + ( * ( - 1 ) lam6n9 ) ( * ( - 1 ) lam6n16 ) ( * ( - 1 ) lam6n17 ) ( * ( - 1 ) lam6n18 ) ( * ( - 1 ) lam6n19 ) ( * ( - 1 ) lam6n23 ) ( * Nl8arg11 lam6n25 ) ) 0 ) ( = ( + ( * ( - 1 ) lam6n0 ) ( * ( - 1 ) lam6n10 ) ( * ( - 1 ) lam6n11 ) ( * Nl8arg21 lam6n25 ) ) 0 ) ( = ( * Nl8arg31 lam6n25 ) 0 ) ( = ( + ( * ( - 1 ) lam6n7 ) ( * ( - 1 ) lam6n8 ) ( * ( - 1 ) lam6n12 ) ( * Nl8arg41 lam6n25 ) ) 0 ) ( = ( + ( * ( - 1 ) lam6n1 ) ( * ( - 1 ) lam6n2 ) ( * ( - 1 ) lam6n20 ) ( * ( - 1 ) lam6n21 ) ( * ( - 1 ) lam6n22 ) ( * Nl8arg51 lam6n25 ) ) 0 ) ( = ( + ( * ( - 1 ) lam6n3 ) ( * ( - 1 ) lam6n13 ) ( * ( - 1 ) lam6n14 ) ( * Nl8arg61 lam6n25 ) ) 0 ) ( = ( + ( * 1 lam6n4 ) ( * Nl8arg71 lam6n25 ) ) 0 ) ( = ( + ( * 1 lam6n16 ) ( * Nl8arg81 lam6n25 ) ) 0 ) ( = ( + ( * 1 lam6n17 ) ( * Nl8arg91 lam6n25 ) ) 0 ) ( = ( + ( * ( - 1 ) lam6n15 ) ( * Nl8arg101 lam6n25 ) ) 0 ) ( = ( + ( * 1 lam6n21 ) ( * Nl8arg111 lam6n25 ) ) 0 ) ( = ( + ( * 1 lam6n22 ) ( * Nl8arg121 lam6n25 ) ) 0 ) ( = ( + ( * ( - 1 ) lam6n4 ) ( * Nl8arg131 lam6n25 ) ) 0 ) ( = ( + ( * 1 lam6n9 ) ( * ( - 1 ) lam6n24 ) ) 0 ) ( = ( + ( * 1 lam6n1 ) ( * ( - 1 ) lam6n5 ) ( * 1 lam6n7 ) ( * 1 lam6n10 ) ( * 1 lam6n13 ) ( * 1 lam6n18 ) ) 0 ) ( = ( + ( * 1 lam6n2 ) ( * ( - 1 ) lam6n6 ) ( * 1 lam6n8 ) ( * 1 lam6n11 ) ( * 1 lam6n14 ) ( * 1 lam6n19 ) ) 0 ) ) ))
(check-sat)
(exit)
